example.mps
NAME          example
OBJSENSE      MAX
ROWS
 N  OBJ
 L  R0
 G  R1
COLUMNS
    X         OBJ       1
    X         R0        1
    X         R1        1
    Y         OBJ       1
    Y         R0        2
    Y         R1        1
    Z         OBJ       2
    Z         R0        3
RHS
    _         R0        4
    _         R1        1
BOUNDS
 BV _         X
 BV _         Y
 BV _         Z
ENDATA