example.sol
# Solution for model example
# Objective value = 3
X 1
Y 0
Z 1
